9 5 60
0 1
1 1
2 0
3 1
4 0
5 0
6 1
7 1
8 0
9 1
10 1
11 0
12 1
13 1
14 0
15 0
16 1
17 1
18 0
19 1
20 1
21 1
22 0
23 1
24 0
25 1
26 0
27 1
28 0
29 1
30 0
31 1
32 0
33 1
34 1
35 1
36 0
37 1
38 1
39 0
40 0
41 1
42 1
43 0
44 1
